154704 528 367490 7211958 177176 0.97
154018 535 388728 8252744 178922 0.99
154124 511 267208 5209076 179830 0.95
155932 517 179151 3517607 178530 0.96
154716 484 422257 8321959 178602 0.94
154520 536 354934 6917923 178030 1
154930 511 233781 4579967 177194 0.99
155142 552 391863 7821059 178990 0.98
155230 519 291680 5900840 178462 0.99
155162 565 404951 8648576 179148 0.98
